p tw 24 156
0 1
0 2
0 12
0 14
0 8
0 9
0 6
0 7
0 15
0 18
0 4
0 23
0 17
0 16
1 2
1 3
1 4
1 11
1 16
1 9
1 19
1 7
1 20
1 6
1 14
1 5
1 8
1 12
2 14
2 16
2 20
2 22
2 4
2 12
2 13
2 8
3 4
3 7
3 17
3 6
3 14
3 11
3 19
3 10
3 22
3 5
3 15
3 8
3 20
4 5
4 21
4 6
4 13
4 10
4 18
4 16
4 7
4 11
4 23
4 14
5 6
5 7
5 8
5 9
5 21
5 22
5 14
5 11
5 17
5 13
5 19
5 12
5 15
6 7
6 14
6 10
6 13
6 22
6 9
6 17
6 19
6 8
6 23
6 15
6 21
6 12
6 18
6 20
7 17
7 20
7 10
7 21
7 9
7 15
7 13
7 16
8 9
8 23
8 12
8 17
8 19
8 21
9 10
9 13
9 19
9 11
9 17
9 18
9 21
9 14
9 15
9 12
9 23
10 11
10 12
10 13
10 21
10 22
10 15
10 18
10 16
10 14
11 12
11 16
11 19
11 21
11 13
11 17
12 14
12 16
12 18
12 15
12 23
12 13
12 20
12 22
13 14
13 15
13 19
14 15
14 16
14 21
14 22
14 18
15 18
15 19
15 17
16 18
16 19
18 21
18 23
18 19
19 22
19 23
20 22
21 23
